1495
0 91 113 224 295 
29 100 286 368 414 
0 148 193 283 355 
175 272 387 414 499 
0 256 343 400 486 
29 278 339 412 459 
330 459 589 621 653 
162 376 520 552 584 
72 148 283 422 558 
462 621 682 760 813 
547 653 746 757 851 
499 638 686 714 903 
187 682 790 807 933 
756 852 955 1021 1119 
369 625 686 872 968 
714 757 896 1054 1119 
375 921 934 1119 1208 
552 716 966 1061 1208 
800 934 985 1287 1376 
649 869 985 1376 1450 
